

******************************************************************************
This program contains Ipopt, a library for large-scale nonlinear optimization.
 Ipopt is released as open source code under the Eclipse Public License (EPL).
         For more information visit https://github.com/coin-or/Ipopt
******************************************************************************

This is Ipopt version 3.14.11, running with linear solver MUMPS 5.5.1.

Number of nonzeros in equality constraint Jacobian...:        0
Number of nonzeros in inequality constraint Jacobian.:        0
Number of nonzeros in Lagrangian Hessian.............:        3

Total number of variables............................:        2
                     variables with only lower bounds:        0
                variables with lower and upper bounds:        0
                     variables with only upper bounds:        0
Total number of equality constraints.................:        0
Total number of inequality constraints...............:        0
        inequality constraints with only lower bounds:        0
   inequality constraints with lower and upper bounds:        0
        inequality constraints with only upper bounds:        0

iter    objective    inf_pr   inf_du lg(mu)  ||d||  lg(rg) alpha_du alpha_pr  ls
   0  7.0084681e+02 0.00e+00 1.00e+02  -1.0 0.00e+00    -  0.00e+00 0.00e+00   0
   1  6.9968902e+02 0.00e+00 9.61e+01  -1.0 9.61e-03   4.0 1.00e+00 1.00e+00f  1
   2  6.9681490e+02 0.00e+00 8.55e+01  -1.0 2.60e-02   3.5 1.00e+00 1.00e+00f  1
   3  6.9194604e+02 0.00e+00 5.95e+01  -1.0 5.53e-02   3.0 1.00e+00 1.00e+00f  1
   4  5.7306203e+02 0.00e+00 8.19e+01  -1.0 1.41e+00   2.6 1.00e+00 1.00e+00f  1
   5  5.0658473e+02 0.00e+00 7.95e+01  -1.0 6.68e-01   2.1 1.00e+00 1.00e+00f  1
   6  4.7707655e+02 0.00e+00 9.83e+01  -1.0 2.99e-01   2.5 1.00e+00 1.00e+00f  1
   7  4.6801812e+02 0.00e+00 3.41e+01  -1.0 1.02e-01   2.9 1.00e+00 1.00e+00f  1
   8  4.6683142e+02 0.00e+00 3.87e+01  -1.0 1.52e-02   3.4 1.00e+00 1.00e+00f  1
   9  4.6293384e+02 0.00e+00 1.62e+02  -1.0 2.26e-01   2.9 1.00e+00 1.00e+00f  1
iter    objective    inf_pr   inf_du lg(mu)  ||d||  lg(rg) alpha_du alpha_pr  ls
  10  4.2534611e+02 0.00e+00 1.24e+01  -1.0 2.12e-01   3.3 1.00e+00 1.00e+00f  1
  11  4.2461305e+02 0.00e+00 2.15e+01  -1.0 2.99e-02   2.8 1.00e+00 1.00e+00f  1
  12  4.2397015e+02 0.00e+00 2.90e+01  -1.0 1.56e-02   3.3 1.00e+00 1.00e+00f  1
  13  3.8725956e+02 0.00e+00 8.55e+01  -1.0 5.31e-01   2.8 1.00e+00 1.00e+00f  1
  14  3.5916531e+02 0.00e+00 1.05e+02  -1.0 8.53e-01   2.3 1.00e+00 5.00e-01f  2
  15  3.5516608e+02 0.00e+00 8.62e+01  -1.0 2.18e-02   3.6 1.00e+00 1.00e+00f  1
  16  3.4597062e+02 0.00e+00 7.17e+01  -1.0 6.45e-02   3.2 1.00e+00 1.00e+00f  1
  17  3.3801789e+02 0.00e+00 3.23e+01  -1.0 1.27e-01    -  1.00e+00 1.00e+00f  1
  18  3.2889364e+02 0.00e+00 5.34e+01  -1.0 1.29e-01   2.7 1.00e+00 1.00e+00f  1
  19  3.2509540e+02 0.00e+00 1.12e+02  -1.0 4.84e-01   2.2 1.00e+00 2.50e-01f  3
iter    objective    inf_pr   inf_du lg(mu)  ||d||  lg(rg) alpha_du alpha_pr  ls
  20  3.2250691e+02 0.00e+00 6.38e+00  -1.0 3.87e-02    -  1.00e+00 1.00e+00f  1
  21  3.2233294e+02 0.00e+00 5.51e+00  -1.0 2.59e-02    -  1.00e+00 1.00e+00f  1
  22  3.2225449e+02 0.00e+00 4.88e+00  -1.0 1.00e-02   2.6 1.00e+00 1.00e+00f  1
  23  3.2219373e+02 0.00e+00 6.83e+00  -1.0 5.78e-03   3.1 1.00e+00 1.00e+00f  1
  24  3.1214852e+02 0.00e+00 1.30e+02  -1.0 1.44e-01   2.6 1.00e+00 1.00e+00f  1
  25  2.8931984e+02 0.00e+00 3.75e+01  -1.0 4.00e-01    -  1.00e+00 1.00e+00f  1
  26  2.8219020e+02 0.00e+00 5.53e+01  -1.0 8.51e-02   3.0 1.00e+00 1.00e+00f  1
  27  2.8000148e+02 0.00e+00 9.69e+01  -1.0 1.87e-01    -  1.00e+00 1.00e+00f  1
  28  2.7686225e+02 0.00e+00 1.96e+01  -1.0 4.48e-02   2.5 1.00e+00 1.00e+00f  1
  29  2.6806234e+02 0.00e+00 1.04e+02  -1.0 8.96e-02   3.0 1.00e+00 1.00e+00f  1
iter    objective    inf_pr   inf_du lg(mu)  ||d||  lg(rg) alpha_du alpha_pr  ls
  30  2.5482583e+02 0.00e+00 1.05e+02  -1.0 5.13e-01   2.5 1.00e+00 1.00e+00f  1
  31  2.5048416e+02 0.00e+00 1.54e+02  -1.0 2.44e-02   3.8 1.00e+00 1.00e+00f  1
  32  2.4834557e+02 0.00e+00 1.70e+02  -1.0 9.87e-03   4.2 1.00e+00 1.00e+00f  1
  33  2.3847193e+02 0.00e+00 2.07e+02  -1.0 4.01e-02   3.8 1.00e+00 1.00e+00f  1
  34  1.9038601e+02 0.00e+00 4.41e+01  -1.0 3.13e-01   3.3 1.00e+00 1.00e+00f  1
  35  1.8854074e+02 0.00e+00 5.56e+01  -1.0 1.10e-01    -  1.00e+00 1.00e+00f  1
  36  1.8774673e+02 0.00e+00 4.84e+00  -1.0 2.38e-02    -  1.00e+00 1.00e+00f  1
  37  1.8760350e+02 0.00e+00 8.53e+00  -1.0 1.23e-02   2.8 1.00e+00 1.00e+00f  1
  38  1.8747262e+02 0.00e+00 1.20e+01  -1.0 6.93e-03   3.2 1.00e+00 1.00e+00f  1
  39  1.5660301e+02 0.00e+00 1.56e+02  -1.0 5.39e-01   2.8 1.00e+00 1.00e+00f  1
iter    objective    inf_pr   inf_du lg(mu)  ||d||  lg(rg) alpha_du alpha_pr  ls
  40  1.5054234e+02 0.00e+00 1.41e+02  -1.0 6.88e-01    -  1.00e+00 2.50e-01f  3
  41  1.4310523e+02 0.00e+00 7.80e+00  -1.0 5.16e-02   3.2 1.00e+00 1.00e+00f  1
  42  1.4057547e+02 0.00e+00 7.38e+01  -1.0 9.67e-02    -  1.00e+00 1.00e+00f  1
  43  1.3872091e+02 0.00e+00 7.43e+01  -1.0 1.80e-02   3.6 1.00e+00 1.00e+00f  1
  44  1.2474619e+02 0.00e+00 1.00e+02  -1.0 1.00e-01   3.1 1.00e+00 1.00e+00f  1
  45  1.1378740e+02 0.00e+00 3.72e+01  -1.0 1.60e-01    -  1.00e+00 1.00e+00f  1
  46  1.0558327e+02 0.00e+00 7.87e+01  -1.0 1.46e-01   2.7 1.00e+00 1.00e+00f  1
  47  9.9825799e+01 0.00e+00 2.99e+01  -1.0 6.40e-02   3.1 1.00e+00 1.00e+00f  1
  48  9.8513058e+01 0.00e+00 1.05e+01  -1.0 5.48e-02    -  1.00e+00 1.00e+00f  1
  49  9.8357543e+01 0.00e+00 4.91e+00  -1.0 2.21e-02    -  1.00e+00 1.00e+00f  1
iter    objective    inf_pr   inf_du lg(mu)  ||d||  lg(rg) alpha_du alpha_pr  ls
  50  9.8281560e+01 0.00e+00 4.70e+00  -1.0 1.04e-02   2.6 1.00e+00 1.00e+00f  1
  51  9.8218391e+01 0.00e+00 6.75e+00  -1.0 6.16e-03   3.0 1.00e+00 1.00e+00f  1
  52  7.8021478e+01 0.00e+00 1.95e+02  -1.0 5.18e-01   2.6 1.00e+00 1.00e+00f  1
  53  5.5153821e+01 0.00e+00 6.15e+01  -1.0 2.62e-01   3.0 1.00e+00 5.00e-01f  2
  54  5.3928287e+01 0.00e+00 8.00e+00  -1.0 4.21e-02   2.5 1.00e+00 1.00e+00f  1
  55  5.3469851e+01 0.00e+00 1.72e+01  -1.0 1.91e-02   2.9 1.00e+00 1.00e+00f  1
  56  5.2916581e+01 0.00e+00 2.67e+01  -1.0 1.18e-02   3.4 1.00e+00 1.00e+00f  1
  57  5.2586446e+01 0.00e+00 3.12e+01  -1.0 5.22e-03   3.8 1.00e+00 1.00e+00f  1
  58  4.9829624e+01 0.00e+00 5.69e+01  -1.0 2.83e-02   3.3 1.00e+00 1.00e+00f  1
  59  4.8128255e+01 0.00e+00 6.76e+01  -1.0 1.27e-02   3.7 1.00e+00 1.00e+00f  1
iter    objective    inf_pr   inf_du lg(mu)  ||d||  lg(rg) alpha_du alpha_pr  ls
  60  3.8798835e+01 0.00e+00 9.02e+01  -1.0 6.16e-02   3.2 1.00e+00 1.00e+00f  1
  61  2.7090183e+01 0.00e+00 4.51e+01  -1.0 2.09e-01    -  1.00e+00 1.00e+00f  1
  62  2.3382022e+01 0.00e+00 4.56e+01  -1.0 6.63e-02   2.8 1.00e+00 1.00e+00f  1
  63  2.1784520e+01 0.00e+00 5.17e+01  -1.0 3.20e-01    -  1.00e+00 5.00e-01f  2
  64  2.1402383e+01 0.00e+00 4.31e+01  -1.0 1.12e-01    -  1.00e+00 1.00e+00f  1
  65  2.0456520e+01 0.00e+00 2.60e+01  -1.0 8.33e-02    -  1.00e+00 1.00e+00f  1
  66  2.0006882e+01 0.00e+00 3.19e+00  -1.0 3.35e-02    -  1.00e+00 1.00e+00f  1
  67  2.0000000e+01 0.00e+00 4.92e-03  -1.0 3.67e-03    -  1.00e+00 1.00e+00f  1
  68  2.0000000e+01 0.00e+00 1.93e-11  -3.8 5.84e-06    -  1.00e+00 1.00e+00f  1

Number of Iterations....: 68

                                   (scaled)                 (unscaled)
Objective...............:   1.6399990968313695e+01    2.0000000000000000e+01
Dual infeasibility......:   1.9271943997698195e-11    2.3502383671958576e-11
Constraint violation....:   0.0000000000000000e+00    0.0000000000000000e+00
Variable bound violation:   0.0000000000000000e+00    0.0000000000000000e+00
Complementarity.........:   0.0000000000000000e+00    0.0000000000000000e+00
Overall NLP error.......:   1.9271943997698195e-11    2.3502383671958576e-11


Number of objective function evaluations             = 96
Number of objective gradient evaluations             = 69
Number of equality constraint evaluations            = 0
Number of inequality constraint evaluations          = 0
Number of equality constraint Jacobian evaluations   = 0
Number of inequality constraint Jacobian evaluations = 0
Number of Lagrangian Hessian evaluations             = 68
Total seconds in IPOPT                               = 0.042

EXIT: Optimal Solution Found.
 
Ipopt 3.14.11: Optimal Solution Found
